0, 3, 7, 6, 8, 6, 2, 7, 2, 4, 2, 0, 1, 1, 6, 9, 1, 9, 8, 8, 0, 7, 5, 5, 6, 0, 4, 3, 7, 4, 0, 4, 0, 7, 5, 7, 8, 8, 9, 5, 1, 6, 5, 4, 2, 9, 8, 10, 3, 4, 0, 6, 5, 9, 10, 2, 1, 8, 9, 9, 0, 5, 10, 2, 2, 8, 2, 0, 9, 8, 9, 6, 7, 4